\Problem name: noname                                                           
\FICO Xpress v8.13.5, Community, written 12:22:24, Jun 7, 2022

Minimize
 100000 x_0_0 + 41.23105625617661 x_1_0 + 49.24428900898052 x_2_0
 + 36.05551275463989 x_3_0 + 22.360679774997898 x_4_0 + 30 x_5_0
 + 41.23105625617661 x_0_1 + 100000 x_1_1 + 30.4138126514911 x_2_1
 + 31.622776601683793 x_3_1 + 63.245553203367585 x_4_1
 + 70.71067811865476 x_5_1 + 49.24428900898052 x_0_2 + 30.4138126514911 x_1_2
 + 100000 x_2_2 + 15 x_3_2 + 65.76473218982953 x_4_2 + 77.62087348130012 x_5_2
 + 36.05551275463989 x_0_3 + 31.622776601683793 x_1_3 + 15 x_2_3
 + 100000 x_3_3 + 50.99019513592785 x_4_3 + 63.245553203367585 x_5_3
 + 22.360679774997898 x_0_4 + 63.245553203367585 x_1_4
 + 65.76473218982953 x_2_4 + 50.99019513592785 x_3_4 + 100000 x_4_4
 + 14.142135623730951 x_5_4 + 30 x_0_5 + 70.71067811865476 x_1_5
 + 77.62087348130012 x_2_5 + 63.245553203367585 x_3_5
 + 14.142135623730951 x_4_5 + 100000 x_5_5 + 75000 x_L_0_0 + 22.5 x_L_1_0
 + 23.717082451262844 x_L_2_0 + 22.5 x_L_0_1 + 75000 x_L_1_1
 + 27.04163456597992 x_L_2_1 + 23.717082451262844 x_L_0_2
 + 27.04163456597992 x_L_1_2 + 75000 x_L_2_2 + 85000 x_l0_0_0
 + 12.020815280171307 x_l0_1_0 + 21.25 x_l0_2_0 + 17 x_l0_3_0
 + 43.34166586553867 x_l0_4_0 + 51 x_l0_5_0 + 12.020815280171307 x_l0_0_1
 + 85000 x_l0_1_1 + 25.851740753767434 x_l0_2_1 + 26.87936011143122 x_l0_3_1
 + 53.75872022286244 x_l0_4_1 + 60.10407640085654 x_l0_5_1 + 21.25 x_l0_0_2
 + 25.851740753767434 x_l0_1_2 + 85000 x_l0_2_2 + 12.75 x_l0_3_2
 + 55.9000223613551 x_l0_4_2 + 65.9777424591051 x_l0_5_2 + 17 x_l0_0_3
 + 26.87936011143122 x_l0_1_3 + 12.75 x_l0_2_3 + 85000 x_l0_3_3
 + 43.34166586553867 x_l0_4_3 + 53.75872022286244 x_l0_5_3
 + 43.34166586553867 x_l0_0_4 + 53.75872022286244 x_l0_1_4
 + 55.9000223613551 x_l0_2_4 + 43.34166586553867 x_l0_3_4 + 85000 x_l0_4_4
 + 12.020815280171307 x_l0_5_4 + 51 x_l0_0_5 + 60.10407640085654 x_l0_1_5
 + 65.9777424591051 x_l0_2_5 + 53.75872022286244 x_l0_3_5
 + 12.020815280171307 x_l0_4_5 + 85000 x_l0_5_5 + 85000 x_l1_0_0
 + 30.647185841443907 x_l1_1_0 + 51.87786136686824 x_l1_2_0
 + 45.77390086064328 x_l1_3_0 + 42.5 x_l1_4_0 + 42.5 x_l1_5_0
 + 30.647185841443907 x_l1_0_1 + 85000 x_l1_1_1 + 25.851740753767434 x_l1_2_1
 + 26.87936011143122 x_l1_3_1 + 53.75872022286244 x_l1_4_1
 + 60.10407640085654 x_l1_5_1 + 51.87786136686824 x_l1_0_2
 + 25.851740753767434 x_l1_1_2 + 85000 x_l1_2_2 + 12.75 x_l1_3_2
 + 55.9000223613551 x_l1_4_2 + 65.9777424591051 x_l1_5_2
 + 45.77390086064328 x_l1_0_3 + 26.87936011143122 x_l1_1_3 + 12.75 x_l1_2_3
 + 85000 x_l1_3_3 + 43.34166586553867 x_l1_4_3 + 53.75872022286244 x_l1_5_3
 + 42.5 x_l1_0_4 + 53.75872022286244 x_l1_1_4 + 55.9000223613551 x_l1_2_4
 + 43.34166586553867 x_l1_3_4 + 85000 x_l1_4_4 + 12.020815280171307 x_l1_5_4
 + 42.5 x_l1_0_5 + 60.10407640085654 x_l1_1_5 + 65.9777424591051 x_l1_2_5
 + 53.75872022286244 x_l1_3_5 + 12.020815280171307 x_l1_4_5 + 85000 x_l1_5_5
 + 7.0710678118654755 w_c0_k0 + 20.615528128088304 w_c1_k0
 + 18.027756377319946 w_c2_k0 + 12.5 w_c0_k1 + 24.62214450449026 w_c1_k1
 + 30.516389039334257 w_c2_k1 + 30 w_c0_k2 + 15 w_c1_k2 + 25 w_c2_k2

Subject To
R661: z_c0 + z_c0_l0 + z_c0_l1 + w_c0_k0 + w_c1_k0 + w_c2_k0 + w_c0_k1
          + w_c1_k1 + w_c2_k1 + w_c0_k2 + w_c1_k2 + w_c2_k2 = 1 
R662: z_c1 + z_c1_l0 + z_c1_l1 + w_c0_k0 + w_c1_k0 + w_c2_k0 + w_c0_k1
          + w_c1_k1 + w_c2_k1 + w_c0_k2 + w_c1_k2 + w_c2_k2 = 1 
R663: z_c2 + z_c2_l0 + z_c2_l1 + w_c0_k0 + w_c1_k0 + w_c2_k0 + w_c0_k1
          + w_c1_k1 + w_c2_k1 + w_c0_k2 + w_c1_k2 + w_c2_k2 = 1 
R664: z_c3 + z_c3_l0 + z_c3_l1 + w_c0_k0 + w_c1_k0 + w_c2_k0 + w_c0_k1
          + w_c1_k1 + w_c2_k1 + w_c0_k2 + w_c1_k2 + w_c2_k2 = 1 
R665: z_c4 + z_c4_l0 + z_c4_l1 + w_c0_k0 + w_c1_k0 + w_c2_k0 + w_c0_k1
          + w_c1_k1 + w_c2_k1 + w_c0_k2 + w_c1_k2 + w_c2_k2 = 1 
R666: w_c0_k0 + w_c1_k0 + w_c2_k0 <= 1 
R667: w_c0_k1 + w_c1_k1 + w_c2_k1 <= 1 
R668: w_c0_k2 + w_c1_k2 + w_c2_k2 <= 1 
R669: z_c0_l0 + z_c1_l0 + z_c2_l0 + z_c3_l0 + z_c4_l0 - 4 z_l_L_0 + w_c0_k0
          + w_c1_k0 + w_c2_k0 <= -1 
R670: z_c0_l1 + z_c1_l1 + z_c2_l1 + z_c3_l1 + z_c4_l1 - 4 z_l_L_1 + w_c0_k2
          + w_c1_k2 + w_c2_k2 <= -1 
R671: x_0_1 + x_1_1 + x_2_1 + x_3_1 + x_4_1 + x_5_1 - z_c0 = 0 
R672: x_0_2 + x_1_2 + x_2_2 + x_3_2 + x_4_2 + x_5_2 - z_c1 = 0 
R673: x_0_3 + x_1_3 + x_2_3 + x_3_3 + x_4_3 + x_5_3 - z_c2 = 0 
R674: x_0_4 + x_1_4 + x_2_4 + x_3_4 + x_4_4 + x_5_4 - z_c3 = 0 
R675: x_0_5 + x_1_5 + x_2_5 + x_3_5 + x_4_5 + x_5_5 - z_c4 = 0 
R676: x_1_0 + x_1_1 + x_1_2 + x_1_3 + x_1_4 + x_1_5 - z_c0 = 0 
R677: x_2_0 + x_2_1 + x_2_2 + x_2_3 + x_2_4 + x_2_5 - z_c1 = 0 
R678: x_3_0 + x_3_1 + x_3_2 + x_3_3 + x_3_4 + x_3_5 - z_c2 = 0 
R679: x_4_0 + x_4_1 + x_4_2 + x_4_3 + x_4_4 + x_4_5 - z_c3 = 0 
R680: x_5_0 + x_5_1 + x_5_2 + x_5_3 + x_5_4 + x_5_5 - z_c4 = 0 
R681: - x_1_0 + x_0_1 + x_2_1 + x_3_1 + x_4_1 + x_5_1 - x_1_2 - x_1_3 - x_1_4
          - x_1_5 = 0 
R682: - x_2_0 - x_2_1 + x_0_2 + x_1_2 + x_3_2 + x_4_2 + x_5_2 - x_2_3 - x_2_4
          - x_2_5 = 0 
R683: - x_3_0 - x_3_1 - x_3_2 + x_0_3 + x_1_3 + x_2_3 + x_4_3 + x_5_3 - x_3_4
          - x_3_5 = 0 
R684: - x_4_0 - x_4_1 - x_4_2 - x_4_3 + x_0_4 + x_1_4 + x_2_4 + x_3_4 + x_5_4
          - x_4_5 = 0 
R685: - x_5_0 - x_5_1 - x_5_2 - x_5_3 - x_5_4 + x_0_5 + x_1_5 + x_2_5 + x_3_5
          + x_4_5 = 0 
R686: x_1_0 + x_2_0 + x_3_0 + x_4_0 + x_5_0 - x_0_1 - x_0_2 - x_0_3 - x_0_4
          - x_0_5 = 0 
R687: y_1_0 - y_0_1 - y_2_1 - y_3_1 - y_4_1 - y_5_1 + y_1_2 + y_1_3 + y_1_4
          + y_1_5 - z_c0 = 0 
R688: y_2_0 + y_2_1 - y_0_2 - y_1_2 - y_3_2 - y_4_2 - y_5_2 + y_2_3 + y_2_4
          + y_2_5 - z_c1 = 0 
R689: y_3_0 + y_3_1 + y_3_2 - y_0_3 - y_1_3 - y_2_3 - y_4_3 - y_5_3 + y_3_4
          + y_3_5 - z_c2 = 0 
R690: y_4_0 + y_4_1 + y_4_2 + y_4_3 - y_0_4 - y_1_4 - y_2_4 - y_3_4 - y_5_4
          + y_4_5 - z_c3 = 0 
R691: y_5_0 + y_5_1 + y_5_2 + y_5_3 + y_5_4 - y_0_5 - y_1_5 - y_2_5 - y_3_5
          - y_4_5 - z_c4 = 0 
R692: - y_1_0 - y_2_0 - y_3_0 - y_4_0 - y_5_0 + y_0_1 + y_0_2 + y_0_3 + y_0_4
          + y_0_5 + z_c0 + z_c1 + z_c2 + z_c3 + z_c4 = 0 
R693: - 3 x_0_0 + y_0_0 <= 0 
R694: - 3 x_1_0 + y_1_0 <= 0 
R695: - 3 x_2_0 + y_2_0 <= 0 
R696: - 3 x_3_0 + y_3_0 <= 0 
R697: - 3 x_4_0 + y_4_0 <= 0 
R698: - 3 x_5_0 + y_5_0 <= 0 
R699: - 3 x_0_1 + y_0_1 <= 0 
R700: - 3 x_1_1 + y_1_1 <= 0 
R701: - 3 x_2_1 + y_2_1 <= 0 
R702: - 3 x_3_1 + y_3_1 <= 0 
R703: - 3 x_4_1 + y_4_1 <= 0 
R704: - 3 x_5_1 + y_5_1 <= 0 
R705: - 3 x_0_2 + y_0_2 <= 0 
R706: - 3 x_1_2 + y_1_2 <= 0 
R707: - 3 x_2_2 + y_2_2 <= 0 
R708: - 3 x_3_2 + y_3_2 <= 0 
R709: - 3 x_4_2 + y_4_2 <= 0 
R710: - 3 x_5_2 + y_5_2 <= 0 
R711: - 3 x_0_3 + y_0_3 <= 0 
R712: - 3 x_1_3 + y_1_3 <= 0 
R713: - 3 x_2_3 + y_2_3 <= 0 
R714: - 3 x_3_3 + y_3_3 <= 0 
R715: - 3 x_4_3 + y_4_3 <= 0 
R716: - 3 x_5_3 + y_5_3 <= 0 
R717: - 3 x_0_4 + y_0_4 <= 0 
R718: - 3 x_1_4 + y_1_4 <= 0 
R719: - 3 x_2_4 + y_2_4 <= 0 
R720: - 3 x_3_4 + y_3_4 <= 0 
R721: - 3 x_4_4 + y_4_4 <= 0 
R722: - 3 x_5_4 + y_5_4 <= 0 
R723: - 3 x_0_5 + y_0_5 <= 0 
R724: - 3 x_1_5 + y_1_5 <= 0 
R725: - 3 x_2_5 + y_2_5 <= 0 
R726: - 3 x_3_5 + y_3_5 <= 0 
R727: - 3 x_4_5 + y_4_5 <= 0 
R728: - 3 x_5_5 + y_5_5 <= 0 
R729: y_0_1 = 0 
R730: y_0_2 = 0 
R731: y_0_3 = 0 
R732: y_0_4 = 0 
R733: y_0_5 = 0 
R734: x_L_0_1 + x_L_1_1 + x_L_2_1 - z_l_L_0 = 0 
R735: x_L_0_2 + x_L_1_2 + x_L_2_2 - z_l_L_1 = 0 
R736: x_L_1_0 + x_L_1_1 + x_L_1_2 - z_l_L_0 = 0 
R737: x_L_2_0 + x_L_2_1 + x_L_2_2 - z_l_L_1 = 0 
R738: - x_L_1_0 + x_L_0_1 + x_L_2_1 - x_L_1_2 = 0 
R739: - x_L_2_0 - x_L_2_1 + x_L_0_2 + x_L_1_2 = 0 
R740: x_L_1_0 + x_L_2_0 - x_L_0_1 - x_L_0_2 = 0 
R741: y_L_1_0 - y_L_0_1 - y_L_2_1 + y_L_1_2 - z_c0_l0 - z_c1_l0 - z_c2_l0
          - z_c3_l0 - z_c4_l0 - w_c0_k0 - w_c1_k0 - w_c2_k0 - w_c0_k1 - w_c1_k1
          - w_c2_k1 - w_c0_k2 - w_c1_k2 - w_c2_k2 = 3 
R742: y_L_2_0 + y_L_2_1 - y_L_0_2 - y_L_1_2 - z_c0_l1 - z_c1_l1 - z_c2_l1
          - z_c3_l1 - z_c4_l1 - w_c0_k0 - w_c1_k0 - w_c2_k0 - w_c0_k1 - w_c1_k1
          - w_c2_k1 - w_c0_k2 - w_c1_k2 - w_c2_k2 = 3 
R743: - y_L_1_0 - y_L_2_0 + y_L_0_1 + y_L_0_2 + z_c0_l0 + z_c1_l0 + z_c2_l0
          + z_c3_l0 + z_c4_l0 + z_c0_l1 + z_c1_l1 + z_c2_l1 + z_c3_l1 + z_c4_l1
          + w_c0_k0 + w_c1_k0 + w_c2_k0 + w_c0_k2 + w_c1_k2 + w_c2_k2 = -2 
R744: - 7 x_L_0_0 + y_L_0_0 <= 0 
R745: - 7 x_L_1_0 + y_L_1_0 <= 0 
R746: - 7 x_L_2_0 + y_L_2_0 <= 0 
R747: - 7 x_L_0_1 + y_L_0_1 <= 0 
R748: - 7 x_L_1_1 + y_L_1_1 <= 0 
R749: - 7 x_L_2_1 + y_L_2_1 <= 0 
R750: - 7 x_L_0_2 + y_L_0_2 <= 0 
R751: - 7 x_L_1_2 + y_L_1_2 <= 0 
R752: - 7 x_L_2_2 + y_L_2_2 <= 0 
R753: y_L_0_1 = 0 
R754: y_L_0_2 = 0 
R755: x_l0_0_1 + x_l0_1_1 + x_l0_2_1 + x_l0_3_1 + x_l0_4_1 + x_l0_5_1 - z_c0_l0
          = 0 
R756: x_l0_0_2 + x_l0_1_2 + x_l0_2_2 + x_l0_3_2 + x_l0_4_2 + x_l0_5_2 - z_c1_l0
          = 0 
R757: x_l0_0_3 + x_l0_1_3 + x_l0_2_3 + x_l0_3_3 + x_l0_4_3 + x_l0_5_3 - z_c2_l0
          = 0 
R758: x_l0_0_4 + x_l0_1_4 + x_l0_2_4 + x_l0_3_4 + x_l0_4_4 + x_l0_5_4 - z_c3_l0
          = 0 
R759: x_l0_0_5 + x_l0_1_5 + x_l0_2_5 + x_l0_3_5 + x_l0_4_5 + x_l0_5_5 - z_c4_l0
          = 0 
R760: x_l0_1_0 + x_l0_1_1 + x_l0_1_2 + x_l0_1_3 + x_l0_1_4 + x_l0_1_5 - z_c0_l0
          = 0 
R761: x_l0_2_0 + x_l0_2_1 + x_l0_2_2 + x_l0_2_3 + x_l0_2_4 + x_l0_2_5 - z_c1_l0
          = 0 
R762: x_l0_3_0 + x_l0_3_1 + x_l0_3_2 + x_l0_3_3 + x_l0_3_4 + x_l0_3_5 - z_c2_l0
          = 0 
R763: x_l0_4_0 + x_l0_4_1 + x_l0_4_2 + x_l0_4_3 + x_l0_4_4 + x_l0_4_5 - z_c3_l0
          = 0 
R764: x_l0_5_0 + x_l0_5_1 + x_l0_5_2 + x_l0_5_3 + x_l0_5_4 + x_l0_5_5 - z_c4_l0
          = 0 
R765: - x_l0_1_0 + x_l0_0_1 + x_l0_2_1 + x_l0_3_1 + x_l0_4_1 + x_l0_5_1
          - x_l0_1_2 - x_l0_1_3 - x_l0_1_4 - x_l0_1_5 = 0 
R766: - x_l0_2_0 - x_l0_2_1 + x_l0_0_2 + x_l0_1_2 + x_l0_3_2 + x_l0_4_2
          + x_l0_5_2 - x_l0_2_3 - x_l0_2_4 - x_l0_2_5 = 0 
R767: - x_l0_3_0 - x_l0_3_1 - x_l0_3_2 + x_l0_0_3 + x_l0_1_3 + x_l0_2_3
          + x_l0_4_3 + x_l0_5_3 - x_l0_3_4 - x_l0_3_5 = 0 
R768: - x_l0_4_0 - x_l0_4_1 - x_l0_4_2 - x_l0_4_3 + x_l0_0_4 + x_l0_1_4
          + x_l0_2_4 + x_l0_3_4 + x_l0_5_4 - x_l0_4_5 = 0 
R769: - x_l0_5_0 - x_l0_5_1 - x_l0_5_2 - x_l0_5_3 - x_l0_5_4 + x_l0_0_5
          + x_l0_1_5 + x_l0_2_5 + x_l0_3_5 + x_l0_4_5 = 0 
R770: x_l0_1_0 + x_l0_2_0 + x_l0_3_0 + x_l0_4_0 + x_l0_5_0 - x_l0_0_1
          - x_l0_0_2 - x_l0_0_3 - x_l0_0_4 - x_l0_0_5 = 0 
R771: y_l0_1_0 - y_l0_0_1 - y_l0_2_1 - y_l0_3_1 - y_l0_4_1 - y_l0_5_1
          + y_l0_1_2 + y_l0_1_3 + y_l0_1_4 + y_l0_1_5 - z_c0_l0 = 0 
R772: y_l0_2_0 + y_l0_2_1 - y_l0_0_2 - y_l0_1_2 - y_l0_3_2 - y_l0_4_2
          - y_l0_5_2 + y_l0_2_3 + y_l0_2_4 + y_l0_2_5 - z_c1_l0 = 0 
R773: y_l0_3_0 + y_l0_3_1 + y_l0_3_2 - y_l0_0_3 - y_l0_1_3 - y_l0_2_3
          - y_l0_4_3 - y_l0_5_3 + y_l0_3_4 + y_l0_3_5 - z_c2_l0 = 0 
R774: y_l0_4_0 + y_l0_4_1 + y_l0_4_2 + y_l0_4_3 - y_l0_0_4 - y_l0_1_4
          - y_l0_2_4 - y_l0_3_4 - y_l0_5_4 + y_l0_4_5 - z_c3_l0 = 0 
R775: y_l0_5_0 + y_l0_5_1 + y_l0_5_2 + y_l0_5_3 + y_l0_5_4 - y_l0_0_5
          - y_l0_1_5 - y_l0_2_5 - y_l0_3_5 - y_l0_4_5 - z_c4_l0 = 0 
R776: - y_l0_1_0 - y_l0_2_0 - y_l0_3_0 - y_l0_4_0 - y_l0_5_0 + y_l0_0_1
          + y_l0_0_2 + y_l0_0_3 + y_l0_0_4 + y_l0_0_5 + z_c0_l0 + z_c1_l0
          + z_c2_l0 + z_c3_l0 + z_c4_l0 = 0 
R777: - 3 x_l0_0_0 + y_l0_0_0 <= 0 
R778: - 3 x_l0_1_0 + y_l0_1_0 <= 0 
R779: - 3 x_l0_2_0 + y_l0_2_0 <= 0 
R780: - 3 x_l0_3_0 + y_l0_3_0 <= 0 
R781: - 3 x_l0_4_0 + y_l0_4_0 <= 0 
R782: - 3 x_l0_5_0 + y_l0_5_0 <= 0 
R783: - 3 x_l0_0_1 + y_l0_0_1 <= 0 
R784: - 3 x_l0_1_1 + y_l0_1_1 <= 0 
R785: - 3 x_l0_2_1 + y_l0_2_1 <= 0 
R786: - 3 x_l0_3_1 + y_l0_3_1 <= 0 
R787: - 3 x_l0_4_1 + y_l0_4_1 <= 0 
R788: - 3 x_l0_5_1 + y_l0_5_1 <= 0 
R789: - 3 x_l0_0_2 + y_l0_0_2 <= 0 
R790: - 3 x_l0_1_2 + y_l0_1_2 <= 0 
R791: - 3 x_l0_2_2 + y_l0_2_2 <= 0 
R792: - 3 x_l0_3_2 + y_l0_3_2 <= 0 
R793: - 3 x_l0_4_2 + y_l0_4_2 <= 0 
R794: - 3 x_l0_5_2 + y_l0_5_2 <= 0 
R795: - 3 x_l0_0_3 + y_l0_0_3 <= 0 
R796: - 3 x_l0_1_3 + y_l0_1_3 <= 0 
R797: - 3 x_l0_2_3 + y_l0_2_3 <= 0 
R798: - 3 x_l0_3_3 + y_l0_3_3 <= 0 
R799: - 3 x_l0_4_3 + y_l0_4_3 <= 0 
R800: - 3 x_l0_5_3 + y_l0_5_3 <= 0 
R801: - 3 x_l0_0_4 + y_l0_0_4 <= 0 
R802: - 3 x_l0_1_4 + y_l0_1_4 <= 0 
R803: - 3 x_l0_2_4 + y_l0_2_4 <= 0 
R804: - 3 x_l0_3_4 + y_l0_3_4 <= 0 
R805: - 3 x_l0_4_4 + y_l0_4_4 <= 0 
R806: - 3 x_l0_5_4 + y_l0_5_4 <= 0 
R807: - 3 x_l0_0_5 + y_l0_0_5 <= 0 
R808: - 3 x_l0_1_5 + y_l0_1_5 <= 0 
R809: - 3 x_l0_2_5 + y_l0_2_5 <= 0 
R810: - 3 x_l0_3_5 + y_l0_3_5 <= 0 
R811: - 3 x_l0_4_5 + y_l0_4_5 <= 0 
R812: - 3 x_l0_5_5 + y_l0_5_5 <= 0 
R813: y_l0_0_1 = 0 
R814: y_l0_0_2 = 0 
R815: y_l0_0_3 = 0 
R816: y_l0_0_4 = 0 
R817: y_l0_0_5 = 0 
R818: x_l1_0_1 + x_l1_1_1 + x_l1_2_1 + x_l1_3_1 + x_l1_4_1 + x_l1_5_1 - z_c0_l1
          = 0 
R819: x_l1_0_2 + x_l1_1_2 + x_l1_2_2 + x_l1_3_2 + x_l1_4_2 + x_l1_5_2 - z_c1_l1
          = 0 
R820: x_l1_0_3 + x_l1_1_3 + x_l1_2_3 + x_l1_3_3 + x_l1_4_3 + x_l1_5_3 - z_c2_l1
          = 0 
R821: x_l1_0_4 + x_l1_1_4 + x_l1_2_4 + x_l1_3_4 + x_l1_4_4 + x_l1_5_4 - z_c3_l1
          = 0 
R822: x_l1_0_5 + x_l1_1_5 + x_l1_2_5 + x_l1_3_5 + x_l1_4_5 + x_l1_5_5 - z_c4_l1
          = 0 
R823: x_l1_1_0 + x_l1_1_1 + x_l1_1_2 + x_l1_1_3 + x_l1_1_4 + x_l1_1_5 - z_c0_l1
          = 0 
R824: x_l1_2_0 + x_l1_2_1 + x_l1_2_2 + x_l1_2_3 + x_l1_2_4 + x_l1_2_5 - z_c1_l1
          = 0 
R825: x_l1_3_0 + x_l1_3_1 + x_l1_3_2 + x_l1_3_3 + x_l1_3_4 + x_l1_3_5 - z_c2_l1
          = 0 
R826: x_l1_4_0 + x_l1_4_1 + x_l1_4_2 + x_l1_4_3 + x_l1_4_4 + x_l1_4_5 - z_c3_l1
          = 0 
R827: x_l1_5_0 + x_l1_5_1 + x_l1_5_2 + x_l1_5_3 + x_l1_5_4 + x_l1_5_5 - z_c4_l1
          = 0 
R828: - x_l1_1_0 + x_l1_0_1 + x_l1_2_1 + x_l1_3_1 + x_l1_4_1 + x_l1_5_1
          - x_l1_1_2 - x_l1_1_3 - x_l1_1_4 - x_l1_1_5 = 0 
R829: - x_l1_2_0 - x_l1_2_1 + x_l1_0_2 + x_l1_1_2 + x_l1_3_2 + x_l1_4_2
          + x_l1_5_2 - x_l1_2_3 - x_l1_2_4 - x_l1_2_5 = 0 
R830: - x_l1_3_0 - x_l1_3_1 - x_l1_3_2 + x_l1_0_3 + x_l1_1_3 + x_l1_2_3
          + x_l1_4_3 + x_l1_5_3 - x_l1_3_4 - x_l1_3_5 = 0 
R831: - x_l1_4_0 - x_l1_4_1 - x_l1_4_2 - x_l1_4_3 + x_l1_0_4 + x_l1_1_4
          + x_l1_2_4 + x_l1_3_4 + x_l1_5_4 - x_l1_4_5 = 0 
R832: - x_l1_5_0 - x_l1_5_1 - x_l1_5_2 - x_l1_5_3 - x_l1_5_4 + x_l1_0_5
          + x_l1_1_5 + x_l1_2_5 + x_l1_3_5 + x_l1_4_5 = 0 
R833: x_l1_1_0 + x_l1_2_0 + x_l1_3_0 + x_l1_4_0 + x_l1_5_0 - x_l1_0_1
          - x_l1_0_2 - x_l1_0_3 - x_l1_0_4 - x_l1_0_5 = 0 
R834: y_l1_1_0 - y_l1_0_1 - y_l1_2_1 - y_l1_3_1 - y_l1_4_1 - y_l1_5_1
          + y_l1_1_2 + y_l1_1_3 + y_l1_1_4 + y_l1_1_5 - z_c0_l1 = 0 
R835: y_l1_2_0 + y_l1_2_1 - y_l1_0_2 - y_l1_1_2 - y_l1_3_2 - y_l1_4_2
          - y_l1_5_2 + y_l1_2_3 + y_l1_2_4 + y_l1_2_5 - z_c1_l1 = 0 
R836: y_l1_3_0 + y_l1_3_1 + y_l1_3_2 - y_l1_0_3 - y_l1_1_3 - y_l1_2_3
          - y_l1_4_3 - y_l1_5_3 + y_l1_3_4 + y_l1_3_5 - z_c2_l1 = 0 
R837: y_l1_4_0 + y_l1_4_1 + y_l1_4_2 + y_l1_4_3 - y_l1_0_4 - y_l1_1_4
          - y_l1_2_4 - y_l1_3_4 - y_l1_5_4 + y_l1_4_5 - z_c3_l1 = 0 
R838: y_l1_5_0 + y_l1_5_1 + y_l1_5_2 + y_l1_5_3 + y_l1_5_4 - y_l1_0_5
          - y_l1_1_5 - y_l1_2_5 - y_l1_3_5 - y_l1_4_5 - z_c4_l1 = 0 
R839: - y_l1_1_0 - y_l1_2_0 - y_l1_3_0 - y_l1_4_0 - y_l1_5_0 + y_l1_0_1
          + y_l1_0_2 + y_l1_0_3 + y_l1_0_4 + y_l1_0_5 + z_c0_l1 + z_c1_l1
          + z_c2_l1 + z_c3_l1 + z_c4_l1 = 0 
R840: - 3 x_l1_0_0 + y_l1_0_0 <= 0 
R841: - 3 x_l1_1_0 + y_l1_1_0 <= 0 
R842: - 3 x_l1_2_0 + y_l1_2_0 <= 0 
R843: - 3 x_l1_3_0 + y_l1_3_0 <= 0 
R844: - 3 x_l1_4_0 + y_l1_4_0 <= 0 
R845: - 3 x_l1_5_0 + y_l1_5_0 <= 0 
R846: - 3 x_l1_0_1 + y_l1_0_1 <= 0 
R847: - 3 x_l1_1_1 + y_l1_1_1 <= 0 
R848: - 3 x_l1_2_1 + y_l1_2_1 <= 0 
R849: - 3 x_l1_3_1 + y_l1_3_1 <= 0 
R850: - 3 x_l1_4_1 + y_l1_4_1 <= 0 
R851: - 3 x_l1_5_1 + y_l1_5_1 <= 0 
R852: - 3 x_l1_0_2 + y_l1_0_2 <= 0 
R853: - 3 x_l1_1_2 + y_l1_1_2 <= 0 
R854: - 3 x_l1_2_2 + y_l1_2_2 <= 0 
R855: - 3 x_l1_3_2 + y_l1_3_2 <= 0 
R856: - 3 x_l1_4_2 + y_l1_4_2 <= 0 
R857: - 3 x_l1_5_2 + y_l1_5_2 <= 0 
R858: - 3 x_l1_0_3 + y_l1_0_3 <= 0 
R859: - 3 x_l1_1_3 + y_l1_1_3 <= 0 
R860: - 3 x_l1_2_3 + y_l1_2_3 <= 0 
R861: - 3 x_l1_3_3 + y_l1_3_3 <= 0 
R862: - 3 x_l1_4_3 + y_l1_4_3 <= 0 
R863: - 3 x_l1_5_3 + y_l1_5_3 <= 0 
R864: - 3 x_l1_0_4 + y_l1_0_4 <= 0 
R865: - 3 x_l1_1_4 + y_l1_1_4 <= 0 
R866: - 3 x_l1_2_4 + y_l1_2_4 <= 0 
R867: - 3 x_l1_3_4 + y_l1_3_4 <= 0 
R868: - 3 x_l1_4_4 + y_l1_4_4 <= 0 
R869: - 3 x_l1_5_4 + y_l1_5_4 <= 0 
R870: - 3 x_l1_0_5 + y_l1_0_5 <= 0 
R871: - 3 x_l1_1_5 + y_l1_1_5 <= 0 
R872: - 3 x_l1_2_5 + y_l1_2_5 <= 0 
R873: - 3 x_l1_3_5 + y_l1_3_5 <= 0 
R874: - 3 x_l1_4_5 + y_l1_4_5 <= 0 
R875: - 3 x_l1_5_5 + y_l1_5_5 <= 0 
R876: y_l1_0_1 = 0 
R877: y_l1_0_2 = 0 
R878: y_l1_0_3 = 0 
R879: y_l1_0_4 = 0 
R880: y_l1_0_5 = 0 

Bounds

Generals
y_0_0 y_1_0 y_2_0 y_3_0 y_4_0 y_5_0 y_0_1 y_1_1 y_2_1 y_3_1 y_4_1 y_5_1 y_0_2 
y_1_2 y_2_2 y_3_2 y_4_2 y_5_2 y_0_3 y_1_3 y_2_3 y_3_3 y_4_3 y_5_3 y_0_4 y_1_4 
y_2_4 y_3_4 y_4_4 y_5_4 y_0_5 y_1_5 y_2_5 y_3_5 y_4_5 y_5_5 y_L_0_0 y_L_1_0 
y_L_2_0 y_L_0_1 y_L_1_1 y_L_2_1 y_L_0_2 y_L_1_2 y_L_2_2 y_l0_0_0 y_l0_1_0 
y_l0_2_0 y_l0_3_0 y_l0_4_0 y_l0_5_0 y_l0_0_1 y_l0_1_1 y_l0_2_1 y_l0_3_1 
y_l0_4_1 y_l0_5_1 y_l0_0_2 y_l0_1_2 y_l0_2_2 y_l0_3_2 y_l0_4_2 y_l0_5_2 
y_l0_0_3 y_l0_1_3 y_l0_2_3 y_l0_3_3 y_l0_4_3 y_l0_5_3 y_l0_0_4 y_l0_1_4 
y_l0_2_4 y_l0_3_4 y_l0_4_4 y_l0_5_4 y_l0_0_5 y_l0_1_5 y_l0_2_5 y_l0_3_5 
y_l0_4_5 y_l0_5_5 y_l1_0_0 y_l1_1_0 y_l1_2_0 y_l1_3_0 y_l1_4_0 y_l1_5_0 
y_l1_0_1 y_l1_1_1 y_l1_2_1 y_l1_3_1 y_l1_4_1 y_l1_5_1 y_l1_0_2 y_l1_1_2 
y_l1_2_2 y_l1_3_2 y_l1_4_2 y_l1_5_2 y_l1_0_3 y_l1_1_3 y_l1_2_3 y_l1_3_3 
y_l1_4_3 y_l1_5_3 y_l1_0_4 y_l1_1_4 y_l1_2_4 y_l1_3_4 y_l1_4_4 y_l1_5_4 
y_l1_0_5 y_l1_1_5 y_l1_2_5 y_l1_3_5 y_l1_4_5 y_l1_5_5 

Binaries
x_0_0 x_1_0 x_2_0 x_3_0 x_4_0 x_5_0 x_0_1 x_1_1 x_2_1 x_3_1 x_4_1 x_5_1 x_0_2 
x_1_2 x_2_2 x_3_2 x_4_2 x_5_2 x_0_3 x_1_3 x_2_3 x_3_3 x_4_3 x_5_3 x_0_4 x_1_4 
x_2_4 x_3_4 x_4_4 x_5_4 x_0_5 x_1_5 x_2_5 x_3_5 x_4_5 x_5_5 x_L_0_0 x_L_1_0 
x_L_2_0 x_L_0_1 x_L_1_1 x_L_2_1 x_L_0_2 x_L_1_2 x_L_2_2 x_l0_0_0 x_l0_1_0 
x_l0_2_0 x_l0_3_0 x_l0_4_0 x_l0_5_0 x_l0_0_1 x_l0_1_1 x_l0_2_1 x_l0_3_1 
x_l0_4_1 x_l0_5_1 x_l0_0_2 x_l0_1_2 x_l0_2_2 x_l0_3_2 x_l0_4_2 x_l0_5_2 
x_l0_0_3 x_l0_1_3 x_l0_2_3 x_l0_3_3 x_l0_4_3 x_l0_5_3 x_l0_0_4 x_l0_1_4 
x_l0_2_4 x_l0_3_4 x_l0_4_4 x_l0_5_4 x_l0_0_5 x_l0_1_5 x_l0_2_5 x_l0_3_5 
x_l0_4_5 x_l0_5_5 x_l1_0_0 x_l1_1_0 x_l1_2_0 x_l1_3_0 x_l1_4_0 x_l1_5_0 
x_l1_0_1 x_l1_1_1 x_l1_2_1 x_l1_3_1 x_l1_4_1 x_l1_5_1 x_l1_0_2 x_l1_1_2 
x_l1_2_2 x_l1_3_2 x_l1_4_2 x_l1_5_2 x_l1_0_3 x_l1_1_3 x_l1_2_3 x_l1_3_3 
x_l1_4_3 x_l1_5_3 x_l1_0_4 x_l1_1_4 x_l1_2_4 x_l1_3_4 x_l1_4_4 x_l1_5_4 
x_l1_0_5 x_l1_1_5 x_l1_2_5 x_l1_3_5 x_l1_4_5 x_l1_5_5 z_c0 z_c1 z_c2 z_c3 z_c4 
z_c0_l0 z_c1_l0 z_c2_l0 z_c3_l0 z_c4_l0 z_c0_l1 z_c1_l1 z_c2_l1 z_c3_l1 
z_c4_l1 z_l_L_0 z_l_L_1 w_c0_k0 w_c1_k0 w_c2_k0 w_c0_k1 w_c1_k1 w_c2_k1 
w_c0_k2 w_c1_k2 w_c2_k2 

End
